p wcnf 13 43 243
243 1 3 0
243 1 6 0
243 1 9 0
243 2 5 0
243 2 7 0
243 2 10 0
243 3 4 0
243 3 5 0
243 3 8 0
243 3 12 0
243 4 6 0
243 4 11 0
243 4 13 0
243 5 6 0
243 5 8 0
243 5 11 0
243 6 7 0
243 6 8 0
243 6 10 0
243 6 12 0
243 7 8 0
243 7 10 0
243 7 11 0
243 7 12 0
243 8 9 0
243 8 11 0
243 9 10 0
243 10 13 0
243 11 13 0
243 12 13 0
11 -1 0
11 -2 0
9 -3 0
10 -4 0
9 -5 0
7 -6 0
8 -7 0
8 -8 0
11 -9 0
9 -10 0
9 -11 0
10 -12 0
10 -13 0
